(set-info :source |printed by MathSAT|)
(declare-fun |!{N}| () Int)
(declare-fun |!{N}.next| () Int)
(declare-fun |!{i}| () Int)
(declare-fun |!{i}.next| () Int)
(declare-fun |!{x}| () Int)
(declare-fun |!{x}.next| () Int)
(declare-fun |!{a.1}| () (Array Int Int))
(declare-fun |!{a.1}.next| () (Array Int Int))
(declare-fun |!pc[0]| () Bool)
(declare-fun |!pc[0].next| () Bool)
(declare-fun |!pc[1]| () Bool)
(declare-fun |!pc[1].next| () Bool)
(declare-fun |!pc[2]| () Bool)
(declare-fun |!pc[2].next| () Bool)
(declare-fun |%{x}#1| () Int)
(declare-fun |%{a.1}#1| () (Array Int Int))
(declare-fun nd<0> () Int)
(declare-fun arrlambda_0 () Int)
(declare-fun arrlambda_0.next () Int)
(declare-fun proph0 () Int)
(declare-fun proph0.next () Int)
(define-fun .def_10 () Bool (! |!pc[2]| :next |!pc[2].next|))
(define-fun .def_12 () Bool (! |!pc[1]| :next |!pc[1].next|))
(define-fun .def_14 () Bool (! |!pc[0]| :next |!pc[0].next|))
(define-fun .def_27 () Int (! |!{N}| :next |!{N}.next|))
(define-fun .def_34 () Int (! |!{x}| :next |!{x}.next|))
(define-fun .def_38 () (Array Int Int) (! |!{a.1}| :next |!{a.1}.next|))
(define-fun .def_42 () Int (! |!{i}| :next |!{i}.next|))
(define-fun .def_262 () Int (! arrlambda_0 :next |arrlambda_0.next|))
(define-fun .def_22590 () Int (! proph0 :next |proph0.next|))
(define-fun .def_15 () Bool (not .def_14))
(define-fun .def_13 () Bool (not .def_12))
(define-fun .def_16 () Bool (and .def_13 .def_15))
(define-fun .def_11 () Bool (not .def_10))
(define-fun .def_17 () Bool (! (and .def_11 .def_16) :init true))
(define-fun .def_35399 () Int (select .def_38 proph0.next))
(define-fun .def_93 () (Array Int Int) (store .def_38 .def_42 44))
(define-fun .def_35398 () Int (select .def_93 proph0.next))
(define-fun .def_35400 () Bool (= .def_35398 .def_35399))
(define-fun .def_22821 () Bool (= .def_42 proph0.next))
(define-fun .def_35401 () Bool (or .def_22821 .def_35400))
(define-fun .def_35390 () Int (select .def_93 .def_22590))
(define-fun .def_35381 () Int (select .def_38 .def_22590))
(define-fun .def_35394 () Bool (= .def_35381 .def_35390))
(define-fun .def_22817 () Bool (= .def_42 .def_22590))
(define-fun .def_35395 () Bool (or .def_22817 .def_35394))
(define-fun .def_35382 () Int (select |!{a.1}.next| .def_22590))
(define-fun .def_35391 () Bool (= .def_35382 .def_35390))
(define-fun .def_94 () Bool (= |!{a.1}.next| .def_93))
(define-fun .def_9176 () Bool (not .def_94))
(define-fun .def_35392 () Bool (or .def_9176 .def_35391))
(define-fun .def_35386 () Int (select .def_38 .def_42))
(define-fun .def_9174 () Int (select |!{a.1}.next| .def_42))
(define-fun .def_35387 () Bool (= .def_9174 .def_35386))
(define-fun .def_40 () Bool (= .def_38 |!{a.1}.next|))
(define-fun .def_9171 () Bool (not .def_40))
(define-fun .def_35388 () Bool (or .def_9171 .def_35387))
(define-fun .def_35383 () Bool (= .def_35381 .def_35382))
(define-fun .def_35384 () Bool (or .def_9171 .def_35383))
(define-fun .def_75 () (Array Int Int) (store .def_38 .def_42 43))
(define-fun .def_76 () Bool (= |!{a.1}.next| .def_75))
(define-fun .def_35378 () Bool (not .def_76))
(define-fun .def_35363 () Int (select .def_75 .def_42))
(define-fun .def_35377 () Bool (= .def_9174 .def_35363))
(define-fun .def_35379 () Bool (or .def_35377 .def_35378))
(define-fun .def_35373 () Int (select .def_38 |!{i}.next|))
(define-fun .def_35372 () Int (select |!{a.1}.next| |!{i}.next|))
(define-fun .def_35374 () Bool (= .def_35372 .def_35373))
(define-fun .def_35375 () Bool (or .def_9171 .def_35374))
(define-fun .def_35367 () Int (select .def_75 .def_34))
(define-fun .def_119 () Int (select .def_38 .def_34))
(define-fun .def_35368 () Bool (= .def_119 .def_35367))
(define-fun .def_285 () Bool (= .def_34 .def_42))
(define-fun .def_35369 () Bool (or .def_285 .def_35368))
(define-fun .def_35364 () Bool (= .def_35363 43))
(define-fun .def_22593 () Bool (= .def_22590 proph0.next))
(define-fun .def_9164 () Int (select .def_93 .def_42))
(define-fun .def_9175 () Bool (= .def_9164 .def_9174))
(define-fun .def_9177 () Bool (or .def_9175 .def_9176))
(define-fun .def_9169 () Int (select .def_38 |!{x}.next|))
(define-fun .def_9168 () Int (select |!{a.1}.next| |!{x}.next|))
(define-fun .def_9170 () Bool (= .def_9168 .def_9169))
(define-fun .def_9172 () Bool (or .def_9170 .def_9171))
(define-fun .def_9165 () Bool (= .def_9164 44))
(define-fun .def_264 () Bool (= .def_262 arrlambda_0.next))
(define-fun .def_147 () Bool (<= nd<0> 0))
(define-fun .def_148 () Bool (not .def_147))
(define-fun .def_143 () Bool (= |!{N}.next| nd<0>))
(define-fun .def_32 () Bool (= |!{i}.next| 0))
(define-fun .def_144 () Bool (and .def_32 .def_143))
(define-fun .def_141 () Bool (= |!{x}.next| |%{x}#1|))
(define-fun .def_145 () Bool (and .def_141 .def_144))
(define-fun .def_139 () Bool (= |!{a.1}.next| |%{a.1}#1|))
(define-fun .def_146 () Bool (and .def_139 .def_145))
(define-fun .def_149 () Bool (and .def_146 .def_148))
(define-fun .def_47 () Bool (not |!pc[1].next|))
(define-fun .def_48 () Bool (and |!pc[0].next| .def_47))
(define-fun .def_46 () Bool (not |!pc[2].next|))
(define-fun .def_49 () Bool (and .def_46 .def_48))
(define-fun .def_137 () Bool (and .def_17 .def_49))
(define-fun .def_150 () Bool (and .def_137 .def_149))
(define-fun .def_120 () Bool (= .def_119 44))
(define-fun .def_128 () Bool (not .def_120))
(define-fun .def_29 () Bool (= .def_27 |!{N}.next|))
(define-fun .def_129 () Bool (and .def_29 .def_128))
(define-fun .def_85 () Bool (= |!{i}.next| .def_42))
(define-fun .def_130 () Bool (and .def_85 .def_129))
(define-fun .def_36 () Bool (= .def_34 |!{x}.next|))
(define-fun .def_131 () Bool (and .def_36 .def_130))
(define-fun .def_132 () Bool (and .def_40 .def_131))
(define-fun .def_112 () Bool (<= .def_27 .def_34))
(define-fun .def_122 () Bool (not .def_112))
(define-fun .def_133 () Bool (and .def_122 .def_132))
(define-fun .def_125 () Bool (and |!pc[0].next| |!pc[1].next|))
(define-fun .def_126 () Bool (and .def_46 .def_125))
(define-fun .def_68 () Bool (and .def_12 .def_15))
(define-fun .def_110 () Bool (and .def_11 .def_68))
(define-fun .def_127 () Bool (and .def_110 .def_126))
(define-fun .def_134 () Bool (and .def_127 .def_133))
(define-fun .def_102 () Int (* (- 1) |!{x}.next|))
(define-fun .def_103 () Int (+ .def_34 .def_102))
(define-fun .def_104 () Bool (= .def_103 (- 1)))
(define-fun .def_86 () Bool (and .def_29 .def_85))
(define-fun .def_105 () Bool (and .def_86 .def_104))
(define-fun .def_106 () Bool (and .def_40 .def_105))
(define-fun .def_121 () Bool (and .def_106 .def_120))
(define-fun .def_123 () Bool (and .def_121 .def_122))
(define-fun .def_21 () Bool (not |!pc[0].next|))
(define-fun .def_23 () Bool (and .def_21 |!pc[1].next|))
(define-fun .def_82 () Bool (and .def_23 .def_46))
(define-fun .def_118 () Bool (and .def_82 .def_110))
(define-fun .def_124 () Bool (and .def_118 .def_123))
(define-fun .def_135 () Bool (or .def_124 .def_134))
(define-fun .def_113 () Bool (and .def_29 .def_112))
(define-fun .def_114 () Bool (and .def_85 .def_113))
(define-fun .def_115 () Bool (and .def_36 .def_114))
(define-fun .def_116 () Bool (and .def_40 .def_115))
(define-fun .def_108 () Bool (and .def_21 .def_47))
(define-fun .def_109 () Bool (and |!pc[2].next| .def_108))
(define-fun .def_111 () Bool (and .def_109 .def_110))
(define-fun .def_117 () Bool (and .def_111 .def_116))
(define-fun .def_136 () Bool (or .def_117 .def_135))
(define-fun .def_151 () Bool (or .def_136 .def_150))
(define-fun .def_99 () Bool (and .def_12 .def_14))
(define-fun .def_100 () Bool (and .def_11 .def_99))
(define-fun .def_101 () Bool (and .def_82 .def_100))
(define-fun .def_107 () Bool (and .def_101 .def_106))
(define-fun .def_152 () Bool (or .def_107 .def_151))
(define-fun .def_58 () Int (* (- 1) .def_42))
(define-fun .def_59 () Int (+ |!{i}.next| .def_58))
(define-fun .def_60 () Bool (= .def_59 1))
(define-fun .def_61 () Bool (and .def_29 .def_60))
(define-fun .def_62 () Bool (and .def_36 .def_61))
(define-fun .def_95 () Bool (and .def_62 .def_94))
(define-fun .def_43 () Bool (<= .def_27 .def_42))
(define-fun .def_64 () Bool (not .def_43))
(define-fun .def_96 () Bool (and .def_64 .def_95))
(define-fun .def_18 () Bool (and .def_13 .def_14))
(define-fun .def_81 () Bool (and .def_10 .def_18))
(define-fun .def_70 () Bool (and |!pc[2].next| .def_48))
(define-fun .def_91 () Bool (and .def_70 .def_81))
(define-fun .def_97 () Bool (and .def_91 .def_96))
(define-fun .def_84 () Bool (= |!{x}.next| 0))
(define-fun .def_87 () Bool (and .def_84 .def_86))
(define-fun .def_88 () Bool (and .def_40 .def_87))
(define-fun .def_89 () Bool (and .def_43 .def_88))
(define-fun .def_83 () Bool (and .def_81 .def_82))
(define-fun .def_90 () Bool (and .def_83 .def_89))
(define-fun .def_98 () Bool (or .def_90 .def_97))
(define-fun .def_153 () Bool (or .def_98 .def_152))
(define-fun .def_77 () Bool (and .def_62 .def_76))
(define-fun .def_78 () Bool (and .def_64 .def_77))
(define-fun .def_69 () Bool (and .def_10 .def_68))
(define-fun .def_25 () Bool (and .def_23 |!pc[2].next|))
(define-fun .def_73 () Bool (and .def_25 .def_69))
(define-fun .def_79 () Bool (and .def_73 .def_78))
(define-fun .def_71 () Bool (and .def_69 .def_70))
(define-fun .def_33 () Bool (and .def_29 .def_32))
(define-fun .def_37 () Bool (and .def_33 .def_36))
(define-fun .def_41 () Bool (and .def_37 .def_40))
(define-fun .def_44 () Bool (and .def_41 .def_43))
(define-fun .def_72 () Bool (and .def_44 .def_71))
(define-fun .def_80 () Bool (or .def_72 .def_79))
(define-fun .def_154 () Bool (or .def_80 .def_153))
(define-fun .def_52 () (Array Int Int) (store .def_38 .def_42 42))
(define-fun .def_53 () Bool (= |!{a.1}.next| .def_52))
(define-fun .def_63 () Bool (and .def_53 .def_62))
(define-fun .def_65 () Bool (and .def_63 .def_64))
(define-fun .def_19 () Bool (and .def_11 .def_18))
(define-fun .def_50 () Bool (and .def_19 .def_49))
(define-fun .def_66 () Bool (and .def_50 .def_65))
(define-fun .def_26 () Bool (and .def_19 .def_25))
(define-fun .def_45 () Bool (and .def_26 .def_44))
(define-fun .def_67 () Bool (or .def_45 .def_66))
(define-fun .def_155 () Bool (or .def_67 .def_154))
(define-fun .def_749 () Bool (and .def_155 .def_264))
(define-fun .def_156 () Bool (not .def_100))
(define-fun .def_750 () Bool (and .def_156 .def_749))
(define-fun .def_9166 () Bool (and .def_750 .def_9165))
(define-fun .def_9161 () (Array Int Int) (store |!{a.1}.next| |!{i}.next| 44))
(define-fun .def_9162 () Int (select .def_9161 |!{i}.next|))
(define-fun .def_9163 () Bool (= .def_9162 44))
(define-fun .def_9167 () Bool (and .def_9163 .def_9166))
(define-fun .def_9173 () Bool (and .def_9167 .def_9172))
(define-fun .def_9178 () Bool (and .def_9173 .def_9177))
(define-fun .def_35362 () Bool (and .def_9178 .def_22593))
(define-fun .def_35365 () Bool (and .def_35362 .def_35364))
(define-fun .def_35356 () (Array Int Int) (store |!{a.1}.next| |!{i}.next| 43))
(define-fun .def_35360 () Int (select .def_35356 |!{i}.next|))
(define-fun .def_35361 () Bool (= .def_35360 43))
(define-fun .def_35366 () Bool (and .def_35361 .def_35365))
(define-fun .def_35370 () Bool (and .def_35366 .def_35369))
(define-fun .def_35357 () Int (select .def_35356 |!{x}.next|))
(define-fun .def_35358 () Bool (= .def_9168 .def_35357))
(define-fun .def_27634 () Bool (= |!{i}.next| |!{x}.next|))
(define-fun .def_35359 () Bool (or .def_27634 .def_35358))
(define-fun .def_35371 () Bool (and .def_35359 .def_35370))
(define-fun .def_35376 () Bool (and .def_35371 .def_35375))
(define-fun .def_35380 () Bool (and .def_35376 .def_35379))
(define-fun .def_35385 () Bool (and .def_35380 .def_35384))
(define-fun .def_35389 () Bool (and .def_35385 .def_35388))
(define-fun .def_35393 () Bool (and .def_35389 .def_35392))
(define-fun .def_35396 () Bool (and .def_35393 .def_35395))
(define-fun .def_35353 () Int (select |!{a.1}.next| proph0.next))
(define-fun .def_35352 () Int (select .def_9161 proph0.next))
(define-fun .def_35354 () Bool (= .def_35352 .def_35353))
(define-fun .def_33923 () Bool (= |!{i}.next| proph0.next))
(define-fun .def_35355 () Bool (or .def_33923 .def_35354))
(define-fun .def_35397 () Bool (and .def_35355 .def_35396))
(define-fun .def_35402 () Bool (! (and .def_35397 .def_35401) :trans true))
(define-fun .def_22591 () Bool (= .def_34 .def_22590))
(define-fun .def_22595 () Bool (not .def_22591))
(define-fun .def_22596 () Bool (! (or .def_156 .def_22595) :invar-property 0))
(assert true)
